TOUR_SECTION
20
39
13
199
143
162
62
35
85
68
146
140
114
150
93
31
30
66
38
123
41
21
144
126
87
113
151
28
45
79
115
159
184
71
178
166
44
86
54
149
134
70
3
58
181
192
33
106
189
16
165
91
60
6
195
116
152
138
139
84
83
112
101
182
5
53
156
127
103
57
119
170
136
99
133
92
52
2
42
65
102
55
75
111
15
197
4
186
135
8
110
72
118
177
121
96
40
43
11
78
7
193
194
63
37
100
173
36
80
81
14
179
174
34
88
132
61
51
137
9
154
117
147
171
73
17
183
125
24
153
18
56
46
95
129
168
161
90
74
180
155
187
164
64
32
94
196
145
122
163
82
176
29
172
19
10
120
200
48
22
67
50
97
198
59
1
27
190
148
49
23
69
47
185
107
141
25
77
188
26
158
160
131
109
167
124
98
12
175
104
142
89
76
105
169
130
108
128
191
157
-1
EOF